<number of tasks>
50

<cycle time>
1000

<order strength>
0.202


<task times>
1 77
2 76
3 192
4 262
5 88
6 118
7 140
8 147
9 124
10 174
11 193
12 73
13 67
14 123
15 87
16 243
17 109
18 164
19 79
20 93
21 250
22 73
23 24
24 136
25 169
26 193
27 243
28 130
29 158
30 78
31 250
32 76
33 348
34 108
35 155
36 71
37 69
38 101
39 208
40 189
41 288
42 213
43 149
44 152
45 128
46 117
47 62
48 130
49 24
50 279

<precedence relations>
2,33
3,12
3,40
6,11
6,13
7,9
7,10
9,18
10,16
10,17
11,14
12,34
13,15
14,19
14,20
15,23
16,22
17,50
18,21
19,24
22,26
22,28
22,30
23,25
23,27
23,29
23,31
23,32
23,34
23,35
26,33
28,34
28,35
29,36
30,32
30,36
30,44
31,37
33,44
34,38
36,39
36,41
36,42
37,40
37,43
38,47
41,45
41,48
42,49
42,50
43,46

<end>
